g9 4 1 0 14 20170614 1156 4 0 240	# problem himmelbj
 43 14 1 0 14	# vars, constraints, objectives, ranges, eqns
 0 1	# nonlinear constraints, objectives
 0 0	# network constraints: nonlinear, linear
 0 43 0	# nonlinear vars in constraints, objectives, both
 0 0 0 1	# linear network variables; functions; arith, flags
 0 0 0 0 0	# discrete variables: binary, integer, nonlinear (b,c,o)
 85 43	# nonzeros in Jacobian, gradients
 0 0	# max name lengths: constraints, variables
 0 0 0 0 0	# common exprs: b,c,o,c1,o1
b
2 1e-12
2 1e-12
2 1e-12
2 1e-12
2 1e-12
2 1e-12
2 1e-12
2 1e-12
2 1e-12
2 1e-12
2 1e-12
2 1e-12
2 1e-12
2 1e-12
2 1e-12
2 1e-12
2 1e-12
2 1e-12
2 1e-12
2 1e-12
2 1e-12
2 1e-12
2 1e-12
2 1e-12
2 1e-12
2 1e-12
2 1e-12
2 1e-12
2 1e-12
2 1e-12
2 1e-12
2 1e-12
2 1e-12
2 1e-12
2 1e-12
2 1e-12
2 1e-12
2 1e-12
2 1e-12
2 1e-12
2 1e-12
2 1e-12
2 1e-12
x43
0 0.1
1 0.1
2 0.1
3 0.1
4 0.1
5 0.1
6 0.1
7 0.1
8 0.1
9 0.1
10 0.1
11 0.1
12 0.1
13 0.1
14 0.1
15 0.1
16 0.1
17 0.1
18 0.1
19 0.1
20 0.1
21 0.1
22 0.1
23 0.1
24 0.1
25 0.1
26 0.1
27 0.1
28 0.1
29 0.1
30 0.1
31 0.1
32 0.1
33 0.1
34 0.1
35 0.1
36 0.1
37 0.1
38 0.1
39 0.1
40 0.1
41 0.1
42 0.1
r
4 0.652981
4 0.281941
4 3.705233
4 47.00022
4 47.02972
4 0.08005
4 0.08813
4 0.04829
4 0.0022725
4 0.0155
4 0
4 0
4 0
4 0
C0
n0
C1
n0
C2
n0
C3
n0
C4
n0
C5
n0
C6
n0
C7
n0
C8
n0
C9
n0
C10
n0
C11
n0
C12
n0
C13
n0
O0 0
o16
o54
89
o16
o2
v0
o43
v0
o16
o2
v1
o43
v1
o16
o2
v2
o43
v2
o16
o2
v3
o43
v3
o16
o2
v4
o43
v4
o16
o2
v5
o43
v5
o16
o2
v6
o43
v6
o16
o2
v7
o43
v7
o16
o2
v8
o43
v8
o16
o2
v9
o43
v9
o16
o2
v10
o43
v10
o16
o2
v11
o43
v11
o16
o2
v12
o43
v12
o16
o2
v13
o43
v13
o16
o2
v14
o43
v14
o16
o2
v15
o43
v15
o16
o2
v16
o43
v16
o16
o2
v17
o43
v17
o16
o2
v18
o43
v18
o16
o2
v19
o43
v19
o16
o2
v20
o43
v20
o16
o2
v21
o43
v21
o16
o2
v22
o43
v22
o16
o2
v23
o43
v23
o16
o2
v24
o43
v24
o16
o2
v25
o43
v25
o16
o2
v26
o43
v26
o16
o2
v27
o43
v27
o16
o2
v28
o43
v28
o16
o2
v29
o43
v29
o16
o2
v30
o43
v30
o16
o2
v31
o43
v31
o16
o2
v32
o43
v32
o16
o2
v33
o43
v33
o16
o2
v34
o43
v34
o16
o2
v35
o43
v35
o16
o2
v36
o43
v36
o16
o2
v37
o43
v37
o16
o2
v38
o43
v38
o16
o2
v39
o43
v39
o16
o2
v40
o43
v40
o16
o2
v41
o43
v41
o16
o2
v42
o43
v42
o2
v0
o43
o54
4
v0
v1
v2
v3
o2
v1
o43
o54
4
v0
v1
v2
v3
o2
v2
o43
o54
4
v0
v1
v2
v3
o2
v3
o43
o54
4
v0
v1
v2
v3
o2
v4
o43
o54
13
n0.0155
v4
v5
v6
v7
v8
v9
v10
v11
v12
v13
v14
v15
o2
v5
o43
o54
13
n0.0155
v4
v5
v6
v7
v8
v9
v10
v11
v12
v13
v14
v15
o2
v6
o43
o54
13
n0.0155
v4
v5
v6
v7
v8
v9
v10
v11
v12
v13
v14
v15
o2
v7
o43
o54
13
n0.0155
v4
v5
v6
v7
v8
v9
v10
v11
v12
v13
v14
v15
o2
v8
o43
o54
13
n0.0155
v4
v5
v6
v7
v8
v9
v10
v11
v12
v13
v14
v15
o2
v9
o43
o54
13
n0.0155
v4
v5
v6
v7
v8
v9
v10
v11
v12
v13
v14
v15
o2
v10
o43
o54
13
n0.0155
v4
v5
v6
v7
v8
v9
v10
v11
v12
v13
v14
v15
o2
v11
o43
o54
13
n0.0155
v4
v5
v6
v7
v8
v9
v10
v11
v12
v13
v14
v15
o2
v12
o43
o54
13
n0.0155
v4
v5
v6
v7
v8
v9
v10
v11
v12
v13
v14
v15
o2
v13
o43
o54
13
n0.0155
v4
v5
v6
v7
v8
v9
v10
v11
v12
v13
v14
v15
o2
v14
o43
o54
13
n0.0155
v4
v5
v6
v7
v8
v9
v10
v11
v12
v13
v14
v15
o2
v15
o43
o54
13
n0.0155
v4
v5
v6
v7
v8
v9
v10
v11
v12
v13
v14
v15
o2
n0.0155
o43
o54
13
n0.0155
v4
v5
v6
v7
v8
v9
v10
v11
v12
v13
v14
v15
o2
v16
o43
o54
18
n0.0211275
v16
v17
v18
v19
v20
v21
v22
v23
v24
v25
v26
v27
v28
v29
v30
v31
v32
o2
v17
o43
o54
18
n0.0211275
v16
v17
v18
v19
v20
v21
v22
v23
v24
v25
v26
v27
v28
v29
v30
v31
v32
o2
v18
o43
o54
18
n0.0211275
v16
v17
v18
v19
v20
v21
v22
v23
v24
v25
v26
v27
v28
v29
v30
v31
v32
o2
v19
o43
o54
18
n0.0211275
v16
v17
v18
v19
v20
v21
v22
v23
v24
v25
v26
v27
v28
v29
v30
v31
v32
o2
v20
o43
o54
18
n0.0211275
v16
v17
v18
v19
v20
v21
v22
v23
v24
v25
v26
v27
v28
v29
v30
v31
v32
o2
v21
o43
o54
18
n0.0211275
v16
v17
v18
v19
v20
v21
v22
v23
v24
v25
v26
v27
v28
v29
v30
v31
v32
o2
v22
o43
o54
18
n0.0211275
v16
v17
v18
v19
v20
v21
v22
v23
v24
v25
v26
v27
v28
v29
v30
v31
v32
o2
v23
o43
o54
18
n0.0211275
v16
v17
v18
v19
v20
v21
v22
v23
v24
v25
v26
v27
v28
v29
v30
v31
v32
o2
v24
o43
o54
18
n0.0211275
v16
v17
v18
v19
v20
v21
v22
v23
v24
v25
v26
v27
v28
v29
v30
v31
v32
o2
v25
o43
o54
18
n0.0211275
v16
v17
v18
v19
v20
v21
v22
v23
v24
v25
v26
v27
v28
v29
v30
v31
v32
o2
v26
o43
o54
18
n0.0211275
v16
v17
v18
v19
v20
v21
v22
v23
v24
v25
v26
v27
v28
v29
v30
v31
v32
o2
v27
o43
o54
18
n0.0211275
v16
v17
v18
v19
v20
v21
v22
v23
v24
v25
v26
v27
v28
v29
v30
v31
v32
o2
n0.0211275
o43
o54
18
n0.0211275
v16
v17
v18
v19
v20
v21
v22
v23
v24
v25
v26
v27
v28
v29
v30
v31
v32
o2
v28
o43
o54
18
n0.0211275
v16
v17
v18
v19
v20
v21
v22
v23
v24
v25
v26
v27
v28
v29
v30
v31
v32
o2
v29
o43
o54
18
n0.0211275
v16
v17
v18
v19
v20
v21
v22
v23
v24
v25
v26
v27
v28
v29
v30
v31
v32
o2
v30
o43
o54
18
n0.0211275
v16
v17
v18
v19
v20
v21
v22
v23
v24
v25
v26
v27
v28
v29
v30
v31
v32
o2
v31
o43
o54
18
n0.0211275
v16
v17
v18
v19
v20
v21
v22
v23
v24
v25
v26
v27
v28
v29
v30
v31
v32
o2
v32
o43
o54
18
n0.0211275
v16
v17
v18
v19
v20
v21
v22
v23
v24
v25
v26
v27
v28
v29
v30
v31
v32
o2
v33
o43
o54
3
v33
v34
v35
o2
v34
o43
o54
3
v33
v34
v35
o2
v35
o43
o54
3
v33
v34
v35
o2
v36
o43
o54
3
v36
v37
v38
o2
v37
o43
o54
3
v36
v37
v38
o2
v38
o43
o54
3
v36
v37
v38
o2
v39
o43
o0
v39
v40
o2
v40
o43
o0
v39
v40
o2
v41
o43
o0
v41
v42
o2
v42
o43
o0
v41
v42
n0.14607975203445794
k42
1
2
3
5
6
7
8
10
12
14
16
18
20
23
26
30
31
32
33
34
35
36
37
38
40
42
45
48
50
54
58
62
65
67
68
71
73
74
77
78
81
82
J0 7
0 1
4 1
16 1
29 1
30 2
31 3
32 4
J1 11
1 1
5 1
13 1
14 1
15 1
17 1
25 1
26 1
27 1
40 1
42 1
J2 3
2 1
6 1
18 1
J3 15
3 1
7 1
12 1
14 1
15 -1
19 1
24 1
26 1
27 -1
33 1
35 -1
36 1
38 -1
40 -1
42 -1
J4 11
3 1
8 1
12 1
13 1
14 1
15 1
20 1
24 1
25 1
26 1
27 1
J5 2
9 1
21 1
J6 2
10 1
22 1
J7 2
11 1
23 1
J8 5
28 1
29 1
30 1
31 1
32 1
J9 11
7 1
8 -1
9 -1
10 1
11 1
13 1
15 -2
28 -4
29 -3
30 -2
31 -1
J10 7
29 -1
30 -2
31 -3
32 -4
33 1
34 1
35 1
J11 3
36 1
37 1
38 1
J12 3
35 -4
39 1
40 1
J13 3
38 -4
41 1
42 1
G0 43
0 0
1 -7.69
2 -11.52
3 -36.6
4 -10.94
5 0
6 0
7 0
8 0
9 0
10 0
11 2.5966
12 -39.39
13 -21.35
14 -32.84
15 6.26
16 10.45
17 0
18 -0.5
19 0
20 0
21 0
22 2.2435
23 0
24 -39.39
25 -21.49
26 -32.84
27 6.12
28 0
29 -1.9028
30 -2.8889
31 -3.3622
32 -7.4854
33 -15.639
34 0
35 21.81
36 -16.79
37 0
38 18.9779
39 0
40 11.959
41 0
42 12.899
